p edge 105 1764 83
e 1 2
e 1 3
e 1 4
e 1 5
e 1 6
e 1 7
e 1 8
e 1 9
e 1 10
e 1 11
e 1 12
e 1 13
e 1 14
e 1 15
e 1 16
e 1 17
e 1 18
e 1 19
e 1 20
e 1 21
e 1 22
e 1 23
e 1 24
e 1 25
e 1 26
e 1 27
e 1 28
e 1 29
e 1 30
e 1 31
e 1 32
e 1 33
e 1 34
e 1 35
e 1 36
e 1 37
e 1 38
e 1 39
e 1 40
e 1 41
e 1 42
e 1 44
e 1 47
e 1 48
e 1 50
e 1 51
e 1 52
e 1 55
e 1 56
e 1 59
e 1 60
e 1 61
e 1 63
e 1 64
e 1 65
e 1 66
e 1 68
e 1 70
e 1 71
e 1 74
e 1 80
e 1 82
e 1 88
e 1 89
e 1 91
e 1 92
e 1 97
e 1 98
e 1 99
e 1 100
e 1 103
e 1 104
e 1 105
e 2 23
e 2 25
e 2 26
e 2 27
e 2 28
e 2 29
e 2 30
e 2 31
e 2 32
e 2 33
e 2 35
e 2 36
e 2 37
e 2 38
e 2 39
e 2 40
e 2 41
e 2 42
e 2 43
e 2 49
e 2 51
e 2 52
e 2 53
e 2 54
e 2 56
e 2 61
e 2 62
e 2 67
e 2 70
e 2 75
e 2 82
e 2 83
e 2 86
e 2 88
e 2 89
e 2 95
e 2 100
e 3 23
e 3 24
e 3 25
e 3 26
e 3 27
e 3 28
e 3 29
e 3 30
e 3 31
e 3 32
e 3 34
e 3 35
e 3 36
e 3 37
e 3 39
e 3 43
e 3 44
e 3 47
e 3 48
e 3 56
e 3 64
e 3 69
e 3 71
e 3 72
e 3 74
e 3 86
e 3 87
e 3 101
e 3 103
e 4 23
e 4 24
e 4 25
e 4 26
e 4 27
e 4 28
e 4 29
e 4 30
e 4 31
e 4 33
e 4 34
e 4 35
e 4 37
e 4 40
e 4 41
e 4 42
e 4 43
e 4 46
e 4 47
e 4 48
e 4 50
e 4 53
e 4 56
e 4 58
e 4 60
e 4 67
e 4 69
e 4 70
e 4 72
e 4 73
e 4 74
e 4 75
e 4 76
e 4 77
e 4 78
e 4 89
e 4 90
e 4 91
e 4 93
e 4 104
e 4 105
e 5 23
e 5 24
e 5 25
e 5 26
e 5 27
e 5 28
e 5 29
e 5 30
e 5 31
e 5 32
e 5 38
e 5 39
e 5 40
e 5 41
e 5 46
e 5 49
e 5 50
e 5 55
e 5 57
e 5 64
e 5 65
e 5 67
e 5 70
e 5 72
e 5 77
e 5 85
e 5 91
e 5 93
e 5 94
e 5 95
e 5 97
e 5 98
e 5 102
e 5 104
e 6 23
e 6 24
e 6 26
e 6 27
e 6 29
e 6 32
e 6 33
e 6 34
e 6 35
e 6 36
e 6 37
e 6 40
e 6 41
e 6 42
e 6 43
e 6 49
e 6 51
e 6 60
e 6 62
e 6 65
e 6 81
e 6 83
e 6 87
e 6 88
e 6 94
e 6 96
e 7 23
e 7 24
e 7 25
e 7 26
e 7 29
e 7 30
e 7 31
e 7 32
e 7 34
e 7 35
e 7 39
e 7 41
e 7 42
e 7 54
e 7 61
e 7 88
e 7 97
e 7 100
e 8 23
e 8 24
e 8 25
e 8 27
e 8 30
e 8 36
e 8 38
e 8 43
e 8 45
e 8 46
e 8 49
e 8 55
e 8 62
e 8 76
e 8 81
e 8 90
e 8 93
e 9 23
e 9 24
e 9 25
e 9 26
e 9 32
e 9 35
e 9 38
e 9 56
e 9 64
e 9 86
e 9 87
e 9 104
e 10 23
e 10 24
e 10 25
e 10 26
e 10 28
e 10 29
e 10 35
e 10 36
e 10 38
e 10 40
e 10 44
e 10 45
e 10 47
e 10 50
e 10 51
e 10 53
e 10 58
e 10 62
e 10 64
e 10 73
e 10 74
e 10 79
e 10 85
e 10 91
e 10 93
e 10 103
e 11 23
e 11 24
e 11 25
e 11 26
e 11 27
e 11 31
e 11 34
e 11 35
e 11 36
e 11 38
e 11 39
e 11 45
e 11 46
e 11 47
e 11 56
e 11 62
e 11 63
e 11 64
e 11 65
e 11 69
e 11 72
e 11 73
e 11 76
e 11 79
e 11 81
e 11 86
e 11 89
e 11 91
e 11 97
e 11 102
e 11 103
e 11 104
e 12 23
e 12 24
e 12 25
e 12 27
e 12 28
e 12 30
e 12 32
e 12 33
e 12 37
e 12 39
e 12 43
e 12 44
e 12 46
e 12 48
e 12 49
e 12 57
e 12 60
e 12 65
e 12 67
e 12 70
e 12 71
e 12 73
e 12 77
e 12 84
e 12 89
e 12 90
e 12 92
e 12 94
e 12 97
e 12 105
e 13 23
e 13 24
e 13 25
e 13 26
e 13 28
e 13 31
e 13 33
e 13 34
e 13 36
e 13 37
e 13 38
e 13 39
e 13 40
e 13 42
e 13 49
e 13 50
e 13 53
e 13 54
e 13 64
e 13 65
e 13 66
e 13 67
e 13 74
e 13 78
e 13 82
e 13 91
e 13 98
e 13 102
e 14 23
e 14 24
e 14 25
e 14 26
e 14 27
e 14 29
e 14 31
e 14 32
e 14 37
e 14 40
e 14 41
e 14 44
e 14 47
e 14 51
e 14 52
e 14 53
e 14 57
e 14 58
e 14 66
e 14 72
e 14 74
e 14 81
e 14 87
e 14 88
e 15 23
e 15 24
e 15 26
e 15 27
e 15 28
e 15 29
e 15 30
e 15 32
e 15 33
e 15 35
e 15 38
e 15 42
e 15 45
e 15 47
e 15 49
e 15 51
e 15 56
e 15 59
e 15 62
e 15 66
e 15 67
e 15 68
e 15 69
e 15 73
e 15 75
e 15 76
e 15 79
e 15 83
e 15 84
e 15 101
e 16 23
e 16 24
e 16 27
e 16 28
e 16 29
e 16 30
e 16 31
e 16 32
e 16 33
e 16 34
e 16 36
e 16 37
e 16 42
e 16 46
e 16 48
e 16 54
e 16 55
e 16 57
e 16 58
e 16 59
e 16 60
e 16 61
e 16 66
e 16 68
e 16 70
e 16 71
e 16 73
e 16 74
e 16 88
e 16 90
e 16 92
e 16 99
e 16 103
e 17 23
e 17 24
e 17 25
e 17 26
e 17 27
e 17 28
e 17 29
e 17 30
e 17 33
e 17 34
e 17 36
e 17 37
e 17 41
e 17 44
e 17 50
e 17 51
e 17 52
e 17 56
e 17 57
e 17 70
e 17 73
e 17 75
e 17 84
e 17 85
e 17 90
e 17 92
e 18 23
e 18 25
e 18 28
e 18 29
e 18 30
e 18 31
e 18 34
e 18 37
e 18 38
e 18 42
e 18 51
e 18 56
e 18 63
e 18 69
e 18 79
e 18 83
e 18 92
e 18 95
e 19 23
e 19 24
e 19 25
e 19 26
e 19 27
e 19 28
e 19 29
e 19 30
e 19 31
e 19 32
e 19 33
e 19 38
e 19 40
e 19 45
e 19 46
e 19 48
e 19 53
e 19 55
e 19 58
e 19 68
e 19 78
e 19 86
e 19 88
e 19 92
e 19 93
e 19 94
e 20 23
e 20 24
e 20 25
e 20 26
e 20 27
e 20 28
e 20 29
e 20 32
e 20 33
e 20 34
e 20 35
e 20 40
e 20 42
e 20 52
e 20 54
e 20 55
e 20 57
e 20 62
e 20 66
e 20 70
e 20 76
e 20 78
e 20 83
e 20 93
e 20 98
e 20 102
e 20 103
e 21 23
e 21 24
e 21 25
e 21 26
e 21 27
e 21 28
e 21 31
e 21 33
e 21 40
e 21 71
e 21 92
e 21 97
e 21 101
e 22 24
e 22 25
e 22 26
e 22 27
e 22 28
e 22 30
e 22 31
e 22 38
e 22 41
e 22 47
e 22 48
e 22 51
e 22 53
e 22 58
e 22 59
e 22 74
e 22 79
e 22 94
e 22 101
e 22 104
e 23 24
e 23 25
e 23 26
e 23 27
e 23 28
e 23 29
e 23 30
e 23 33
e 23 34
e 23 35
e 23 37
e 23 38
e 23 41
e 23 42
e 23 44
e 23 45
e 23 47
e 23 49
e 23 52
e 23 53
e 23 54
e 23 55
e 23 56
e 23 57
e 23 59
e 23 60
e 23 65
e 23 70
e 23 73
e 23 75
e 23 81
e 23 83
e 23 84
e 23 88
e 23 90
e 23 93
e 23 94
e 23 95
e 23 100
e 23 101
e 23 104
e 23 105
e 24 25
e 24 26
e 24 27
e 24 28
e 24 29
e 24 30
e 24 31
e 24 32
e 24 33
e 24 34
e 24 35
e 24 36
e 24 37
e 24 38
e 24 40
e 24 42
e 24 43
e 24 44
e 24 45
e 24 46
e 24 47
e 24 48
e 24 49
e 24 50
e 24 51
e 24 52
e 24 53
e 24 55
e 24 56
e 24 57
e 24 59
e 24 60
e 24 61
e 24 63
e 24 65
e 24 66
e 24 67
e 24 69
e 24 70
e 24 71
e 24 79
e 24 81
e 24 83
e 24 84
e 24 85
e 24 88
e 24 90
e 24 91
e 24 94
e 24 95
e 24 96
e 24 101
e 24 102
e 24 105
e 25 26
e 25 27
e 25 28
e 25 29
e 25 30
e 25 31
e 25 32
e 25 33
e 25 34
e 25 36
e 25 37
e 25 38
e 25 39
e 25 43
e 25 44
e 25 46
e 25 47
e 25 48
e 25 49
e 25 50
e 25 58
e 25 59
e 25 63
e 25 64
e 25 69
e 25 72
e 25 73
e 25 74
e 25 77
e 25 78
e 25 80
e 25 83
e 25 85
e 25 87
e 25 91
e 25 92
e 25 93
e 25 94
e 25 96
e 25 98
e 25 105
e 26 27
e 26 28
e 26 29
e 26 30
e 26 31
e 26 32
e 26 33
e 26 34
e 26 35
e 26 36
e 26 37
e 26 38
e 26 39
e 26 40
e 26 41
e 26 42
e 26 43
e 26 44
e 26 45
e 26 46
e 26 47
e 26 48
e 26 51
e 26 53
e 26 54
e 26 55
e 26 57
e 26 58
e 26 59
e 26 60
e 26 61
e 26 62
e 26 63
e 26 64
e 26 67
e 26 68
e 26 69
e 26 70
e 26 72
e 26 74
e 26 78
e 26 79
e 26 81
e 26 82
e 26 84
e 26 85
e 26 86
e 26 89
e 26 91
e 26 93
e 26 95
e 26 97
e 26 99
e 26 100
e 26 102
e 26 105
e 27 28
e 27 29
e 27 30
e 27 31
e 27 32
e 27 33
e 27 34
e 27 35
e 27 36
e 27 37
e 27 39
e 27 41
e 27 42
e 27 43
e 27 45
e 27 51
e 27 55
e 27 56
e 27 57
e 27 58
e 27 60
e 27 62
e 27 64
e 27 68
e 27 76
e 27 77
e 27 78
e 27 80
e 27 82
e 27 84
e 27 85
e 27 86
e 27 87
e 27 89
e 27 95
e 27 97
e 27 98
e 27 101
e 27 105
e 28 29
e 28 30
e 28 31
e 28 32
e 28 33
e 28 35
e 28 36
e 28 38
e 28 39
e 28 41
e 28 42
e 28 44
e 28 45
e 28 47
e 28 48
e 28 49
e 28 51
e 28 55
e 28 56
e 28 57
e 28 58
e 28 61
e 28 62
e 28 63
e 28 65
e 28 69
e 28 70
e 28 72
e 28 83
e 28 84
e 28 91
e 28 97
e 28 100
e 28 101
e 28 105
e 29 30
e 29 31
e 29 32
e 29 33
e 29 34
e 29 35
e 29 36
e 29 37
e 29 39
e 29 40
e 29 41
e 29 42
e 29 43
e 29 44
e 29 45
e 29 46
e 29 47
e 29 48
e 29 50
e 29 52
e 29 53
e 29 55
e 29 57
e 29 59
e 29 61
e 29 63
e 29 65
e 29 66
e 29 69
e 29 71
e 29 72
e 29 74
e 29 76
e 29 79
e 29 82
e 29 83
e 29 84
e 29 87
e 29 90
e 29 93
e 29 97
e 29 100
e 29 103
e 30 31
e 30 32
e 30 33
e 30 34
e 30 36
e 30 37
e 30 38
e 30 39
e 30 40
e 30 41
e 30 43
e 30 44
e 30 45
e 30 48
e 30 49
e 30 50
e 30 51
e 30 52
e 30 53
e 30 54
e 30 58
e 30 59
e 30 62
e 30 63
e 30 66
e 30 68
e 30 69
e 30 70
e 30 74
e 30 76
e 30 77
e 30 78
e 30 80
e 30 85
e 30 86
e 30 89
e 30 96
e 30 99
e 30 104
e 31 32
e 31 34
e 31 35
e 31 36
e 31 39
e 31 41
e 31 42
e 31 43
e 31 47
e 31 48
e 31 49
e 31 52
e 31 54
e 31 55
e 31 57
e 31 61
e 31 65
e 31 66
e 31 68
e 31 69
e 31 71
e 31 72
e 31 73
e 31 76
e 31 77
e 31 79
e 31 81
e 31 82
e 31 85
e 31 90
e 31 91
e 31 92
e 31 93
e 31 94
e 31 96
e 31 100
e 31 102
e 32 33
e 32 34
e 32 35
e 32 36
e 32 37
e 32 39
e 32 40
e 32 43
e 32 45
e 32 46
e 32 47
e 32 50
e 32 52
e 32 55
e 32 56
e 32 57
e 32 61
e 32 65
e 32 66
e 32 72
e 32 74
e 32 81
e 32 82
e 32 83
e 32 84
e 32 89
e 32 90
e 32 91
e 32 95
e 32 98
e 32 100
e 32 103
e 32 104
e 33 34
e 33 35
e 33 36
e 33 39
e 33 40
e 33 45
e 33 48
e 33 50
e 33 51
e 33 53
e 33 55
e 33 57
e 33 58
e 33 60
e 33 61
e 33 63
e 33 64
e 33 68
e 33 71
e 33 72
e 33 74
e 33 79
e 33 81
e 33 82
e 33 83
e 33 84
e 33 88
e 33 93
e 34 35
e 34 37
e 34 38
e 34 39
e 34 41
e 34 43
e 34 44
e 34 45
e 34 46
e 34 48
e 34 50
e 34 51
e 34 52
e 34 54
e 34 56
e 34 57
e 34 59
e 34 62
e 34 64
e 34 65
e 34 71
e 34 73
e 34 78
e 34 81
e 34 82
e 34 83
e 34 86
e 34 87
e 34 93
e 34 95
e 34 96
e 34 104
e 35 36
e 35 39
e 35 40
e 35 41
e 35 45
e 35 46
e 35 49
e 35 50
e 35 51
e 35 52
e 35 54
e 35 55
e 35 58
e 35 60
e 35 62
e 35 63
e 35 64
e 35 65
e 35 67
e 35 68
e 35 72
e 35 74
e 35 77
e 35 78
e 35 80
e 35 81
e 35 88
e 35 90
e 35 102
e 36 37
e 36 38
e 36 39
e 36 40
e 36 41
e 36 43
e 36 44
e 36 45
e 36 46
e 36 47
e 36 49
e 36 50
e 36 52
e 36 54
e 36 57
e 36 58
e 36 60
e 36 61
e 36 67
e 36 68
e 36 71
e 36 75
e 36 76
e 36 78
e 36 79
e 36 80
e 36 84
e 36 85
e 36 86
e 36 88
e 36 91
e 36 95
e 36 96
e 36 101
e 36 102
e 37 38
e 37 39
e 37 40
e 37 41
e 37 42
e 37 43
e 37 46
e 37 47
e 37 49
e 37 50
e 37 51
e 37 52
e 37 54
e 37 56
e 37 59
e 37 60
e 37 61
e 37 62
e 37 63
e 37 64
e 37 72
e 37 74
e 37 77
e 37 80
e 37 82
e 37 83
e 37 86
e 37 87
e 37 99
e 37 102
e 37 103
e 38 40
e 38 43
e 38 44
e 38 45
e 38 51
e 38 53
e 38 58
e 38 62
e 38 68
e 38 69
e 38 71
e 38 75
e 38 76
e 38 77
e 38 79
e 38 86
e 38 87
e 38 88
e 38 96
e 38 97
e 38 98
e 38 101
e 38 103
e 39 41
e 39 42
e 39 43
e 39 44
e 39 45
e 39 46
e 39 50
e 39 51
e 39 52
e 39 53
e 39 54
e 39 58
e 39 59
e 39 60
e 39 62
e 39 63
e 39 64
e 39 65
e 39 67
e 39 69
e 39 70
e 39 72
e 39 75
e 39 77
e 39 79
e 39 81
e 39 85
e 39 87
e 39 94
e 39 96
e 39 99
e 39 101
e 40 42
e 40 43
e 40 44
e 40 45
e 40 46
e 40 47
e 40 48
e 40 53
e 40 55
e 40 58
e 40 61
e 40 66
e 40 69
e 40 72
e 40 75
e 40 78
e 40 80
e 40 81
e 40 83
e 40 84
e 40 93
e 40 95
e 40 96
e 40 99
e 40 101
e 40 104
e 41 42
e 41 44
e 41 48
e 41 49
e 41 59
e 41 60
e 41 65
e 41 66
e 41 67
e 41 73
e 41 76
e 41 77
e 41 80
e 41 82
e 41 89
e 41 98
e 41 100
e 41 101
e 42 43
e 42 44
e 42 46
e 42 48
e 42 49
e 42 50
e 42 52
e 42 55
e 42 58
e 42 63
e 42 66
e 42 67
e 42 69
e 42 73
e 42 74
e 42 78
e 42 82
e 42 83
e 42 85
e 42 87
e 42 92
e 42 95
e 42 97
e 42 104
e 43 44
e 43 45
e 43 47
e 43 48
e 43 49
e 43 53
e 43 57
e 43 59
e 43 60
e 43 64
e 43 66
e 43 68
e 43 74
e 43 75
e 43 76
e 43 77
e 43 79
e 43 81
e 43 86
e 43 90
e 43 91
e 43 94
e 44 46
e 44 48
e 44 49
e 44 50
e 44 52
e 44 53
e 44 54
e 44 56
e 44 63
e 44 66
e 44 67
e 44 70
e 44 71
e 44 78
e 44 80
e 44 94
e 44 96
e 45 46
e 45 52
e 45 53
e 45 56
e 45 57
e 45 59
e 45 60
e 45 61
e 45 67
e 45 68
e 45 69
e 45 70
e 45 72
e 45 73
e 45 80
e 45 82
e 45 98
e 45 99
e 45 100
e 45 102
e 46 47
e 46 49
e 46 50
e 46 53
e 46 54
e 46 56
e 46 61
e 46 66
e 46 72
e 46 77
e 46 86
e 46 89
e 46 90
e 46 92
e 46 96
e 46 100
e 46 102
e 46 103
e 46 104
e 47 50
e 47 52
e 47 54
e 47 55
e 47 57
e 47 58
e 47 59
e 47 63
e 47 74
e 47 75
e 47 76
e 47 78
e 47 89
e 47 94
e 47 97
e 48 52
e 48 54
e 48 59
e 48 61
e 48 62
e 48 64
e 48 67
e 48 73
e 48 75
e 48 77
e 48 78
e 48 79
e 48 85
e 48 95
e 48 98
e 48 99
e 48 100
e 48 102
e 49 51
e 49 53
e 49 54
e 49 57
e 49 61
e 49 62
e 49 65
e 49 67
e 49 68
e 49 70
e 49 72
e 49 76
e 49 78
e 49 81
e 49 82
e 49 88
e 49 94
e 49 98
e 49 100
e 49 103
e 49 104
e 49 105
e 50 54
e 50 77
e 50 99
e 50 100
e 50 103
e 51 55
e 51 60
e 51 61
e 51 62
e 51 63
e 51 64
e 51 73
e 51 80
e 51 86
e 51 87
e 51 101
e 52 54
e 52 55
e 52 56
e 52 59
e 52 62
e 52 67
e 52 68
e 52 73
e 52 75
e 52 81
e 52 82
e 52 83
e 52 89
e 52 92
e 53 56
e 53 58
e 53 60
e 53 65
e 53 80
e 53 86
e 53 95
e 53 97
e 53 101
e 53 104
e 54 59
e 54 61
e 54 66
e 54 71
e 54 73
e 54 75
e 54 82
e 54 88
e 54 89
e 54 95
e 54 100
e 54 105
e 55 65
e 55 66
e 55 67
e 55 68
e 55 69
e 55 71
e 55 74
e 55 76
e 55 79
e 55 84
e 55 85
e 55 86
e 55 89
e 55 90
e 55 93
e 55 98
e 55 99
e 55 100
e 55 105
e 56 63
e 56 64
e 56 65
e 56 69
e 56 80
e 56 92
e 56 99
e 56 105
e 57 58
e 57 59
e 57 68
e 57 73
e 57 75
e 57 81
e 57 91
e 57 94
e 57 103
e 57 104
e 58 60
e 58 61
e 58 63
e 58 66
e 58 69
e 58 80
e 58 83
e 58 84
e 58 85
e 58 89
e 58 92
e 58 98
e 59 60
e 59 68
e 59 71
e 59 75
e 59 78
e 59 79
e 59 84
e 59 86
e 59 88
e 59 89
e 59 94
e 59 96
e 59 103
e 59 104
e 60 65
e 60 71
e 60 73
e 60 75
e 60 80
e 60 84
e 60 93
e 60 95
e 60 96
e 60 99
e 60 101
e 60 103
e 61 62
e 61 63
e 61 64
e 61 69
e 61 70
e 61 78
e 61 81
e 61 87
e 61 90
e 61 97
e 62 63
e 62 64
e 62 67
e 62 70
e 62 71
e 62 72
e 62 76
e 62 77
e 62 79
e 62 82
e 62 85
e 62 89
e 62 91
e 62 92
e 62 98
e 63 67
e 63 70
e 63 88
e 63 89
e 63 101
e 63 104
e 63 105
e 64 66
e 64 71
e 64 85
e 64 88
e 64 105
e 65 68
e 65 71
e 65 84
e 65 95
e 66 68
e 66 73
e 66 75
e 66 77
e 66 80
e 66 84
e 66 85
e 66 87
e 66 91
e 66 93
e 66 94
e 66 96
e 67 74
e 67 75
e 67 78
e 67 79
e 67 80
e 67 81
e 67 82
e 67 84
e 67 87
e 67 90
e 67 96
e 67 99
e 67 102
e 68 70
e 68 72
e 68 77
e 68 85
e 68 95
e 68 99
e 68 102
e 69 76
e 69 88
e 69 90
e 69 91
e 69 92
e 69 94
e 69 97
e 69 103
e 70 71
e 70 76
e 70 94
e 71 80
e 71 87
e 71 98
e 72 76
e 72 77
e 72 79
e 72 82
e 72 83
e 72 85
e 72 91
e 72 96
e 72 97
e 73 75
e 73 76
e 73 84
e 73 95
e 73 96
e 73 98
e 73 103
e 74 75
e 74 77
e 74 79
e 74 88
e 74 92
e 74 97
e 75 86
e 75 87
e 75 89
e 75 90
e 75 93
e 76 81
e 76 82
e 76 83
e 76 86
e 76 90
e 76 92
e 76 105
e 77 78
e 77 80
e 77 85
e 77 86
e 77 93
e 77 103
e 78 80
e 78 83
e 78 97
e 78 98
e 78 100
e 79 87
e 79 91
e 79 94
e 79 98
e 79 101
e 79 102
e 80 92
e 80 102
e 81 87
e 81 92
e 81 95
e 81 105
e 82 91
e 82 99
e 83 97
e 84 87
e 84 105
e 85 96
e 85 98
e 86 90
e 86 101
e 87 88
e 87 89
e 87 101
e 87 105
e 88 90
e 88 93
e 88 96
e 88 99
e 88 100
e 88 101
e 89 92
e 89 99
e 89 100
e 89 104
e 90 95
e 90 99
e 91 96
e 91 97
e 91 98
e 92 93
e 92 94
e 92 102
e 92 104
e 93 100
e 94 102
e 94 104
e 96 99
e 96 102
e 96 103
e 98 99
e 98 103
e 98 105
e 101 102
e 102 105
